
nmachesperday = 3;
nmatchesperstadium = 3;
ndays = 5;
nteams = 6;
nstadiums = 5;

fixes=[|{},{},{},{},{}|
       {},{},{},{},{} |
       {},{},{},{},{} |
       {},{},{},{},{} |
       {},{},{},{},{} |];
       
       

distancies = [|0, 10, 20, 30, 40|  % A
    10, 0, 15, 25, 35|  % B
    20, 15, 0, 12, 22|  % C
    30, 25, 12, 0, 18|  % D
    40, 35, 22, 18, 0|];
    
    
tifosi = [10000,20000,2000,15000,7000,5000];
capacitats = [40000,35000,20000,25000,10000];
